 Fe Te
1.0
   3.6652399999999998   0.0000000000000000   0.0000000000000002
   0.0000000000000006   3.6652399999999998   0.0000000000000002
   0.0000000000000000   0.0000000000000000  25.1594599999999993
 Fe Te
 6 6
Direct
   0.0000000000000000   0.0000000000000000   0.0000000000000000
   0.4999999999999999   0.4999999999999999   0.0000000000000000
   0.0000000000000000   0.0000000000000000   0.2500000000000000
   0.4999999999999999   0.4999999999999999   0.2500000000000000
   0.0000000000000000   0.0000000000000000   0.4999999999999999
   0.4999999999999999   0.4999999999999999   0.4999999999999999
   0.9999999999999999   0.4999999999999999   0.0721350935194952
   0.4999999999999999   0.0000000000000000   0.1778649064805047
   0.9999999999999999   0.4999999999999999   0.3221350935194952
   0.4999999999999999   0.0000000000000000   0.4278649064805047
   0.9999999999999999   0.4999999999999999   0.5721350935194952
   0.4999999999999999   0.0000000000000000   0.6778649064805047
