 Fe Te
1.0
   3.6652399999999998   0.0000000000000000   0.0000000000000002
   0.0000000000000006   3.6652399999999998   0.0000000000000002
   0.0000000000000000   0.0000000000000000  27.5797299999999979
 Fe Te
 6 5
Direct
   0.0000000000000000   0.0000000000000000   0.0000000000000000
   0.4999999999999999   0.5000000000000000   1.0000000000000000
   0.0000000000000000   0.0000000000000000   0.2280611521577623
   0.4999999999999999   0.5000000000000000   0.2280611521577623
   0.0000000000000000   0.0000000000000000   0.4561223043155245
   0.4999999999999999   0.5000000000000000   0.4561223043155245
   0.9999999999999999   0.5000000000000000   0.0658048501562560
   0.5000000000000000   0.0000000000000000   0.1622563020015062
   0.9999999999999999   0.5000000000000000   0.2938660023140183
   0.5000000000000000   0.0000000000000000   0.3903174541592684
   0.9999999999999999   0.5000000000000000   0.5219271544717806
