 Fe Te
1.0
   3.6652399999999998   0.0000000000000000   0.0000000000000002
   0.0000000000000006   3.6652399999999998   0.0000000000000002
   0.0000000000000000   0.0000000000000000  18.8695950000000003
 Fe Te
 4 4
Direct
   0.0000000000000000   0.0000000000000000   0.0000000000000000
   0.4999999999999999   0.5000000000000000   0.0000000000000000
   0.0000000000000000   0.0000000000000000   0.3333333333333333
   0.4999999999999999   0.5000000000000000   0.3333333333333333
   0.9999999999999999   0.5000000000000000   0.0961801246926603
   0.5000000000000000   0.0000000000000000   0.2371532086406730
   0.9999999999999999   0.5000000000000000   0.4295134580259936
   0.5000000000000000   0.0000000000000000   0.5704865419740063
