 Fe Te
1.0
   3.6652399999999998   0.0000000000000000   0.0000000000000002
   0.0000000000000006   3.6652399999999998   0.0000000000000002
   0.0000000000000000   0.0000000000000000  25.7648499999999991
 Fe Te
 4 4
Direct
   0.0000000000000000   0.0000000000000000   0.0000000000000000
   0.4999999999999999   0.5000000000000000   1.0000000000000000
   0.0000000000000000   0.0000000000000000   0.2441258148213555
   0.4999999999999999   0.5000000000000000   0.2441258148213555
   0.9999999999999999   0.5000000000000000   0.0704401539306458
   0.5000000000000000   0.0000000000000000   0.1736856608907096
   0.9999999999999999   0.5000000000000000   0.3145659687520013
   0.5000000000000000   0.0000000000000000   0.4178114757120651
