 Fe Te
1.0
   3.6652399999999998   0.0000000000000000   0.0000000000000002
   0.0000000000000006   3.6652399999999998   0.0000000000000002
   0.0000000000000000   0.0000000000000000  10.7648499999999991
 Fe Te
 4 4
Direct
   0.0000000000000000   0.0000000000000000   0.0000000000000000
   0.4999999999999999   0.5000000000000000   1.0000000000000000
   0.0000000000000000   0.0000000000000000   0.5842965763573111
   0.4999999999999999   0.5000000000000000   0.5842965763573111
   0.9999999999999999   0.5000000000000000   0.1685931527146221
   0.5000000000000000   0.0000000000000000   0.4157034236426889
   0.9999999999999999   0.5000000000000000   0.7528897290719332
   0.5000000000000000   0.0000000000000000   0.0000000000000000
