 Fe Te
1.0
   3.6652399999999998   0.0000000000000000   0.0000000000000000
   0.0000000000000000   3.6652399999999998   0.0000000000000000
   0.0000000000000000   0.0000000000000000   6.2898649999999998
 Fe Te
 2 2
Direct
   0.0000000000000000   0.0000000000000000   0.0000000000000000
   0.5000000000000000   0.5000000000000000   0.0000000000000000
   0.0000000000000000   0.5000000000000000   0.2885403740779810
   0.5000000000000000   0.0000000000000000   0.7114596259220189
