 Fe Te
1.0
   3.6652399999999998   0.0000000000000000   0.0000000000000002
   0.0000000000000006   3.6652399999999998   0.0000000000000002
   0.0000000000000000   0.0000000000000000  29.3946100000000001
 Fe Te
 6 6
Direct
   0.0000000000000000   0.0000000000000000   0.0000000000000000
   0.4999999999999999   0.5000000000000000   1.0000000000000000
   0.0000000000000000   0.0000000000000000   0.2139802161008430
   0.4999999999999999   0.5000000000000000   0.2139802161008430
   0.0000000000000000   0.0000000000000000   0.4279604322016859
   0.4999999999999999   0.5000000000000000   0.4279604322016859
   0.9999999999999999   0.5000000000000000   0.0617419315990244
   0.5000000000000000   0.0000000000000000   0.1522382845018185
   0.9999999999999999   0.5000000000000000   0.2757221476998674
   0.5000000000000000   0.0000000000000000   0.3662185006026615
   0.9999999999999999   0.5000000000000000   0.4897023638007104
   0.5000000000000000   0.0000000000000000   0.5801987167035044
