 Fe Te
1.0
   3.6652399999999998   0.0000000000000000   0.0000000000000002
   0.0000000000000006   3.6652399999999998   0.0000000000000002
   0.0000000000000000   0.0000000000000000  12.5797299999999996
 Fe Te
 6 4
Direct
   0.0000000000000000   0.0000000000000000   0.0000000000000000
   0.4999999999999999   0.5000000000000000   1.0000000000000000
   0.0000000000000000   0.0000000000000000   0.5000000000000000
   0.4999999999999999   0.5000000000000000   0.5000000000000000
   0.0000000000000000   0.0000000000000000   0.0000000000000000
   0.4999999999999999   0.5000000000000000   0.0000000000000000
   0.9999999999999999   0.5000000000000000   0.1442701870389905
   0.5000000000000000   0.0000000000000000   0.3557298129610095
   0.9999999999999999   0.5000000000000000   0.6442701870389905
   0.5000000000000000   0.0000000000000000   0.8557298129610095
