 Fe Te
1.0
   3.6652399999999998   0.0000000000000000   0.0000000000000002
   0.0000000000000006   3.6652399999999998   0.0000000000000002
   0.0000000000000000   0.0000000000000000  21.2898649999999989
 Fe Te
 6 4
Direct
   0.0000000000000000   0.0000000000000000   0.0000000000000000
   0.4999999999999999   0.4999999999999999   1.0000000000000000
   0.0000000000000000   0.0000000000000000   0.2954394027392847
   0.4999999999999999   0.4999999999999999   0.2954394027392847
   0.0000000000000000   0.0000000000000000   0.5908788054785693
   0.4999999999999999   0.4999999999999999   0.5908788054785693
   0.9999999999999999   0.4999999999999999   0.0852461957837684
   0.4999999999999999   0.0000000000000000   0.2101932069555161
   0.9999999999999999   0.4999999999999999   0.3806855985230531
   0.4999999999999999   0.0000000000000000   0.5056326096948007
