 Fe Te
1.0
   3.6652399999999998   0.0000000000000000   0.0000000000000002
   0.0000000000000006   3.6652399999999998   0.0000000000000002
   0.0000000000000000   0.0000000000000000  14.3946100000000001
 Fe Te
 6 5
Direct
   0.0000000000000000   0.0000000000000000   0.0000000000000000
   0.4999999999999999   0.5000000000000000   1.0000000000000000
   0.0000000000000000   0.0000000000000000   0.4369597370126735
   0.4999999999999999   0.5000000000000000   0.4369597370126735
   0.0000000000000000   0.0000000000000000   0.8739194740253470
   0.4999999999999999   0.5000000000000000   0.8739194740253470
   0.9999999999999999   0.5000000000000000   0.1260805259746530
   0.5000000000000000   0.0000000000000000   0.3108792110380204
   0.9999999999999999   0.5000000000000000   0.5630402629873265
   0.5000000000000000   0.0000000000000000   0.7478389480506940
   0.9999999999999999   0.5000000000000000   0.0000000000000000
